50
    42     5    35    71    73    38    31    22    58    54    27    62    38    95    72     2    92    64     1    67    40    34    44    99    44    41    19    55     4    87    37     7    64    41    96    45     6    36    88    72    54    73    94     7    72    14    86    86    65    92
     4    10     6     1     6     4     6     4     9     3     6     4     1     5     9     7     5     3     5     5     6     1     9     3    10     5     5     1     6     8     5     4     3     3     7     1     6     4     6     8    10     3     4     3     1     4     2    10    10     8
     0    30    96   129   275   261     0   283   185   440   457   143   468   376     0     0    62     0   241   262     0   414     0     0     0     0   445     0   504   203   234    34   487     0   185   250    94     0   378     0   429     0     0    14   262   478   499   190     0   465
